% demand
num_movements = 52;
loading_factor = [1900, 1750, 850, 1850, 850, 1250, 1700, 800, 1400, 1250, 1250, 1300, 900, 1750, 1950, 1700, 1800, 1100, 1500, 1400, 900, 1750, 1250, 1250, 1950, 2000, 1400, 1750, 1950, 1400, 1400, 1650, 850, 1450, 1450, 1150, 950, 1600, 1800, 900, 1250, 1300, 1250, 1150, 1200, 1000, 800, 1500, 1650, 1400, 1900, 950];
pickup_time = [0, 0, 0, 0, 0, 0, 0, 0, 2, 2, 2, 2, 2, 3, 3, 4, 4, 5, 5, 5, 5, 5, 5, 5, 6, 6, 6, 6, 7, 7, 8, 8, 8, 8, 8, 8, 9, 10, 10, 10, 10, 10, 10, 11, 11, 11, 11, 12, 12, 12, 12, 13];
delivery_time = [3, 5, 2, 2, 2, 3, 2, 1, 3, 3, 6, 3, 4, 4, 5, 5, 5, 10, 6, 7, 8, 6, 6, 6, 8, 7, 8, 8, 9, 8, 9, 10, 9, 9, 9, 9, 10, 11, 11, 11, 11, 11, 11, 14, 13, 14, 14, 14, 14, 13, 14, 14];

% transporter definition
total_capacity = 11000;
num_decks = 4;
capacity = [3000, 3000, 1000, 4000];

% ways out of decks
num_ways_out = 2;
paths_out = array3d(decks, ways_out, decks, [
% ways out of deck d1
2, 4, 0, 0, 3, 4, 0, 0, 

% ways out of deck d2
4, 0, 0, 0, 0, 0, 0, 0,	

% ways out of deck d3
4, 0, 0, 0, 0, 0, 0, 0,	

% ways out of deck d4
0, 0, 0, 0,	0, 0, 0, 0,	

]);

